VALUE 2900563
1 217
4 208
4 5
6 211
7 196
10 192
13 168
16 160
19 142
22 136
25 196
27 180
29 147
31 142
33 124
34 138
35 120
36 126
36 37
38 123
38 39
39 40
41 87
44 216
48 109
50 80
52 155
54 115
57 85
59 80
62 70
63 64
62 64
65 66
63 66
70 74
59 74
80 81
41 81
85 90
87 96
90 98
96 103
98 100
100 102
102 105
103 106
105 111
106 107
107 114
109 111
111 113
35 113
114 116
115 119
116 121
119 120
120 124
121 122
122 125
37 123
124 125
125 129
34 126
129 132
22 132
136 137
19 137
129 138
142 147
147 149
149 152
152 154
16 154
155 165
160 163
13 163
27 165
168 170
170 176
176 183
180 183
10 183
192 194
7 194
196 202
4 202
1 207
208 210
1 210
5 211
207 216
6 218
7 219
10 220
13 221
16 222
19 223
22 224
25 225
27 226
29 227
31 228
33 229
35 230
37 231
38 232
39 233
40 234
41 235
44 236
48 237
50 238
52 239
54 240
57 241
59 242
62 243
64 244
65 245

